Data path: /scratch/opt/lxu/CFLG/benchmarks/random_B
Instance: r_25_0.2_58.txt
Result path: /scratch/opt/lxu/CFLG/results/random_B
Solver: Gurobi
Time limit: 7200
Formulation: EFP
Cover: Large
julia --project=. src/main.jl /scratch/opt/lxu/CFLG/benchmarks/random_B r_25_0.2_58.txt /scratch/opt/lxu/CFLG/results/random_B Gurobi 7200 EFP Large
The latest version of Julia in the `release` channel is 1.11.5+0.x64.linux.gnu. You currently have `1.11.4+0.x64.linux.gnu` installed. Run:

  juliaup update

in your terminal shell to install Julia 1.11.5+0.x64.linux.gnu and update the `release` channel to that version.
/scratch/opt/lxu/CFLG/benchmarks/random_B Gurobi 7200.0 /scratch/opt/lxu/CFLG/results/random_B r_25_0.2_58.txt EFP Large
/scratch/opt/lxu/CFLG/benchmarks/random_B/r_25_0.2_58.txt

 read graph
data loaded

problem_graph/original graph: node: 25/25 edge: 58/58 dlt: 1.3662485762083236 break_avg_len: 0.6831242881041618 break_max_len: 0.9946460943203358elapsed CPU time: 0.026611 seconds
Set parameter TokenServer to value "solice01.zib.de"
Set parameter Threads to value 1
Set parameter OutputFlag to value 1
Set parameter MIPGap to value 0.0001
Set parameter MIPGapAbs to value 0.999998
Set parameter TimeLimit to value 7199.973389

 more cuts:falsefalse
1 0
formulation:EFP0 58 25

 model loaded

Gurobi Optimizer version 12.0.1 build v12.0.1rc0 (linux64 - "Debian GNU/Linux 12 (bookworm)")

CPU model: Intel(R) Xeon(R) Gold 5222 CPU @ 3.80GHz, instruction set [SSE2|AVX|AVX2|AVX512]
Thread count: 8 physical cores, 16 logical processors, using up to 1 threads

Non-default parameters:
TimeLimit  7199.973389
MIPGapAbs  0.999998
Threads  1

Optimize a model with 3884 rows, 1958 columns and 11467 nonzeros
Model fingerprint: 0xaa79c353
Variable types: 141 continuous, 1817 integer (1817 binary)
Coefficient statistics:
  Matrix range     [1e-06, 2e+00]
  Objective range  [1e+00, 1e+00]
  Bounds range     [3e-01, 1e+00]
  RHS range        [3e-01, 6e+00]
Found heuristic solution: objective 10.0000000
Presolve removed 706 rows and 93 columns
Presolve time: 0.03s
Presolved: 3178 rows, 1865 columns, 10538 nonzeros
Variable types: 82 continuous, 1783 integer (1783 binary)

Root relaxation: objective 6.933859e-01, 1380 iterations, 0.04 seconds (0.07 work units)

    Nodes    |    Current Node    |     Objective Bounds      |     Work
 Expl Unexpl |  Obj  Depth IntInf | Incumbent    BestBd   Gap | It/Node Time

     0     0    0.69339    0  123   10.00000    0.69339  93.1%     -    0s
     0     0    1.00000    0  130   10.00000    1.00000  90.0%     -    0s
H    0     0                       9.0000000    1.00000  88.9%     -    0s
H    0     0                       8.0000000    1.00000  87.5%     -    0s
     0     0    1.31492    0  240    8.00000    1.31492  83.6%     -    0s
H    0     0                       6.0000000    1.31716  78.0%     -    0s
     0     0    1.41261    0  203    6.00000    1.41261  76.5%     -    0s
     0     0    1.54107    0  217    6.00000    1.54107  74.3%     -    0s
H    0     0                       5.0000000    1.54330  69.1%     -    0s
     0     0    1.54330    0  251    5.00000    1.54330  69.1%     -    0s
     0     0    1.54482    0  287    5.00000    1.54482  69.1%     -    0s
     0     0    1.55123    0  218    5.00000    1.55123  69.0%     -    0s
     0     0    1.55161    0  226    5.00000    1.55161  69.0%     -    0s
     0     0    1.55191    0  260    5.00000    1.55191  69.0%     -    0s
     0     0    1.55191    0  260    5.00000    1.55191  69.0%     -    0s
     0     0    1.61290    0  267    5.00000    1.61290  67.7%     -    0s
H    0     0                       4.0000000    1.61618  59.6%     -    0s
     0     0    1.65675    0  202    4.00000    1.65675  58.6%     -    0s
     0     0    1.65984    0  203    4.00000    1.65984  58.5%     -    0s
     0     0    1.66184    0  188    4.00000    1.66184  58.5%     -    0s
     0     0    1.66408    0  236    4.00000    1.66408  58.4%     -    0s
     0     0    1.66408    0  236    4.00000    1.66408  58.4%     -    0s
     0     0    1.69932    0  184    4.00000    1.69932  57.5%     -    0s
     0     0    1.70472    0  217    4.00000    1.70472  57.4%     -    0s
     0     0    1.70651    0  282    4.00000    1.70651  57.3%     -    0s
     0     0    1.70651    0  284    4.00000    1.70651  57.3%     -    0s
     0     0    1.71859    0  230    4.00000    1.71859  57.0%     -    0s
     0     0    1.72578    0  246    4.00000    1.72578  56.9%     -    0s
     0     0    1.72578    0  250    4.00000    1.72578  56.9%     -    0s
     0     0    1.72738    0  269    4.00000    1.72738  56.8%     -    0s
     0     0    1.73389    0  271    4.00000    1.73389  56.7%     -    1s
     0     0    1.73389    0  285    4.00000    1.73389  56.7%     -    1s
     0     0    1.73424    0  277    4.00000    1.73424  56.6%     -    1s
     0     0    1.73598    0  296    4.00000    1.73598  56.6%     -    1s
     0     0    1.73600    0  296    4.00000    1.73600  56.6%     -    1s
     0     0    1.73600    0  296    4.00000    1.73600  56.6%     -    1s
     0     0    1.73612    0  266    4.00000    1.73612  56.6%     -    1s
     0     2    1.76268    0  233    4.00000    1.76268  55.9%     -    1s
   738   404    2.66667   11  172    4.00000    2.08293  47.9%  59.5    5s
   762   420    3.00000   28  274    4.00000    2.08293  47.9%  57.7   10s
   964   415    3.00000   34   41    4.00000    2.16116  46.0%   102   15s
  1274   392    2.76281   23  113    4.00000    2.34252  41.4%   110   20s
  1758   364    2.75000   46  110    4.00000    2.52127  37.0%   115   25s
  2234   327    3.00000   28   64    4.00000    2.66667  33.3%   116   30s
  2935   322    3.00000   42   28    4.00000    3.00000  25.0%   111   35s
  3721   143    3.00000   43   65    4.00000    3.00000  25.0%   109   40s
  4265   104    3.00000   44   46    4.00000    3.00000  25.0%   111   45s

Cutting planes:
  Learned: 4
  Gomory: 1
  Cover: 49
  Implied bound: 16
  MIR: 20
  StrongCG: 9
  Flow cover: 21
  GUB cover: 43
  Inf proof: 1
  Zero half: 11
  RLT: 14
  Relax-and-lift: 4
  BQP: 4

Explored 4716 nodes (534227 simplex iterations) in 48.58 seconds (57.64 work units)
Thread count was 1 (of 16 available processors)

Solution count 7: 4 5 5 ... 10

Optimal solution found (tolerance 1.00e-04)
Best objective 4.000000000000e+00, best bound 4.000000000000e+00, gap 0.0000%

User-callback calls 24722, time in user-callback 0.03 sec

 sepatime0
4.0Stat(MathOptInterface.OPTIMAL, 4.0, 4.0, 0.0, 0.0, 0.026611, 48.57939100265503, 4716, Main.CFLG.EFP, "", #undef)
